(declare-const delta_n Int)
(declare-const delta___cost Int)
(declare-const delta_j Int)
(assert (exists
         ((|n'?1| Int) (|j'?2| Int) (|__cost'?3| Int) (phi_n?4 Int)
            (phi_j?5 Int) (phi___cost?6 Int) (havoc?7 Int) (j?8 Int)
            (n?9 Int) (__cost?10 Int))
         (and (< (- j?8) 0) (< (- n?9) 0) (< (+ (- n?9) j?8) 0)
                (or (and (or (< havoc?7 0) (< 0 havoc?7))
                           (<= (- __cost?10) 0) (<= (+ (- __cost?10) -1) 0)
                           (= (+ (- phi___cost?6) __cost?10 1) 0)
                           (= (+ (- phi_j?5) j?8 -1) 0)
                           (= (+ (- phi_n?4) n?9 -1) 0))
                      (and (= havoc?7 0) (= (+ (- phi___cost?6) __cost?10) 0)
                             (= (+ (- phi_j?5) j?8) 0)
                             (= (+ (- phi_n?4) n?9) 0)))
                (= (+ |n'?1| (- phi_n?4)) 0) (= (+ |j'?2| (- phi_j?5) -1) 0)
                (= (+ |__cost'?3| (- phi___cost?6)) 0)
                (= delta___cost (+ |__cost'?3| (- __cost?10)))
                (= delta_j (+ |j'?2| (- j?8))) (= delta_n (+ |n'?1| (- n?9))))))
(check-sat)
